(set-logic QF_S)
(set-option :strings-exp true)
(set-option :produce-models true)
(declare-fun sigmaStar_0 () String)
(declare-fun literal_6 () String)
(assert (= literal_6 "\x3c\x69\x6e\x70\x75\x74\x20\x74\x79\x70\x65\x3d\x22\x72\x61\x64\x69\x6f\x22\x20\x69\x64\x3d\x22\x72\x22\x20\x6e\x61\x6d\x65\x3d\x22\x6d\x6f\x64\x65\x22\x20\x76\x61\x6c\x75\x65\x3d\x22\x72\x65\x76\x69\x65\x77\x22\x20\x63\x68\x65\x63\x6b\x65\x64\x3d\x22\x63\x68\x65\x63\x6b\x65\x64\x22\x20\x2f\x3e\x3c\x6c\x61\x62\x65\x6c\x20\x66\x6f\x72\x3d\x22\x72\x22\x3e\x72\x65\x76\x69\x65\x77\x3c\x2f\x6c\x61\x62\x65\x6c\x3e\x5c\x6e"))
(assert (str.in.re literal_6 (re.++ (re.* re.allchar) (re.++ (str.to.re "\x5c\x3c\x53\x43\x52\x49\x50\x54") (re.* re.allchar)))))
(check-sat)
(get-model)
